(set-logic ALL)
(declare-const pattern_VAR String)
(declare-const text_VAR String)
(assert (not (> (str.len pattern_VAR) (str.len text_VAR))))
(assert (< 0 (str.len pattern_VAR)))
(assert (> (str.len pattern_VAR) 0))
(assert (> (str.len text_VAR) 0))
(assert (= 0 (- (str.len pattern_VAR) 1)))
(assert (not (< 1 (str.len pattern_VAR))))
(assert (< 0 (+ (- (str.len text_VAR) (str.len pattern_VAR)) 1)))
(assert (< (+ 0 (str.len pattern_VAR)) 0))
(check-sat)
(get-value (pattern_VAR))
(get-value (text_VAR))
